Traveling Salesman Problem/TSP_generados/Aleatorio1621103297_8.tsp
NAME: Aleatorio1621103297_8.tsp
COMMENT: Randomly generated scenario
TYPE: TSP
DIMENSION: 8
EDGE_WEIGHT_TYPE: ATT
NODE_COORD_SECTION
1 18.51 3.05
2 24.99 27.04
3 23.26 6.83
4 4.04 37.86
5 2.11 16.83
6 8.74 14.23
7 10.14 30.57
8 16.97 10.96
