Traveling Salesman Problem/TSP_generados/Aleatorio1621103297_8.opt.tour
NAME: Aleatorio1621103297_8.opt.tour
COMMENT: Optimal solution for Aleatorio1621103297_8 (96.27798245725643)
TYPE: TOUR
DIMENSION: 8
TOUR_SECTION
1 3 2 7 4 5 6 8
-1
EOF
